Version identifier: 20.1.0.0 | 2020-11-10 | 9bedb6d68
Tried aggregator 2 times.
MIP Presolve eliminated 941 rows and 512 columns.
MIP Presolve modified 2376 coefficients.
Aggregator did 112 substitutions.
Reduced MIP has 1356 rows, 1041 columns, and 4455 nonzeros.
Reduced MIP has 180 binaries, 861 generals, 0 SOSs, and 0 indicators.
Presolve time = 0.01 sec. (5.59 ticks)
Found incumbent of value 2032.000000 after 0.03 sec. (11.18 ticks)
Probing fixed 30 vars, tightened 334 bounds.
Probing time = 0.00 sec. (0.88 ticks)
Tried aggregator 1 time.
Detecting symmetries...
MIP Presolve eliminated 585 rows and 30 columns.
MIP Presolve modified 75 coefficients.
Reduced MIP has 771 rows, 1011 columns, and 2520 nonzeros.
Reduced MIP has 254 binaries, 757 generals, 0 SOSs, and 0 indicators.
Presolve time = 0.01 sec. (2.74 ticks)
Probing time = 0.00 sec. (0.19 ticks)
Clique table members: 5.
MIP emphasis: balance optimality and feasibility.
MIP search method: dynamic search.
Parallel mode: deterministic, using up to 24 threads.
Root relaxation solution time = 0.01 sec. (1.91 ticks)

        Nodes                                         Cuts/
   Node  Left     Objective  IInf  Best Integer    Best Bound    ItCnt     Gap

*     0+    0                         2032.0000        0.0000           100.00%
      0     0        0.0000    52     2032.0000        0.0000      233  100.00%
*     0+    0                           11.0000        0.0000           100.00%
      0     0        0.0000    92       11.0000     Cuts: 127      355  100.00%
      0     0        0.0000    35       11.0000      Cuts: 79      623  100.00%
      0     0        0.0000    27       11.0000      Cuts: 61      759  100.00%
      0     0        0.0000    22       11.0000      Cuts: 14      817  100.00%
      0     0        0.0114   233       11.0000   ZeroHalf: 5      925   99.90%
      0     0        0.1000   184       11.0000      Cuts: 76     1005   99.09%
      0     0        0.2000   158       11.0000      Cuts: 18     1025   98.18%
      0     0        0.3333    76       11.0000      Cuts: 22     1032   96.97%
      0     0        0.4000    86       11.0000      Cuts: 21     1050   96.36%
      0     0        0.5000   168       11.0000      Cuts: 12     1066   95.45%
      0     0        0.5000   102       11.0000      Cuts: 13     1072   95.45%
      0     0        0.5000    94       11.0000      Cuts: 17     1086   95.45%
*     0+    0                           10.0000        0.5000            95.00%
*     0+    0                            7.0000        0.5000            92.86%
      0     0        cutoff              7.0000        7.0000     1086    0.00%
Elapsed time = 0.66 sec. (121.69 ticks, tree = 0.01 MB, solutions = 4)

Implied bound cuts applied:  29
Flow cuts applied:  1
Mixed integer rounding cuts applied:  4
Zero-half cuts applied:  47
Lift and project cuts applied:  3
Gomory fractional cuts applied:  10

Root node processing (before b&c):
  Real time             =    0.66 sec. (121.79 ticks)
Parallel b&c, 24 threads:
  Real time             =    0.00 sec. (0.00 ticks)
  Sync time (average)   =    0.00 sec.
  Wait time (average)   =    0.00 sec.
                          ------------
Total (root+branch&cut) =    0.66 sec. (121.79 ticks)

Solution status = Optimal
Solution LB = 7
Solution UB = 7
Runtime = 0.661944 seconds
	Command being timed: "/home/min/git_repos/CS598MEBProject/CNT-ILP/build/cnt -s 2 ./output/k8_n15/simC_c1_k8_n15_u1_s3_del02.input-left.cnp"
	User time (seconds): 10.37
	System time (seconds): 0.07
	Percent of CPU this job got: 1492%
	Elapsed (wall clock) time (h:mm:ss or m:ss): 0:00.70
	Average shared text size (kbytes): 0
	Average unshared data size (kbytes): 0
	Average stack size (kbytes): 0
	Average total size (kbytes): 0
	Maximum resident set size (kbytes): 78912
	Average resident set size (kbytes): 0
	Major (requiring I/O) page faults: 0
	Minor (reclaiming a frame) page faults: 16831
	Voluntary context switches: 4431
	Involuntary context switches: 1420
	Swaps: 0
	File system inputs: 0
	File system outputs: 16
	Socket messages sent: 0
	Socket messages received: 0
	Signals delivered: 0
	Page size (bytes): 4096
	Exit status: 0
